c nombre: 37
c densidad: 0.5
p edges 20 106
e 1 3
e 1 4
e 1 6
e 1 8
e 1 9
e 1 11
e 1 12
e 1 13
e 1 14
e 1 15
e 1 18
e 1 19
e 2 3
e 2 6
e 2 7
e 2 8
e 2 9
e 2 10
e 2 12
e 2 14
e 2 15
e 2 16
e 2 19
e 2 20
e 3 4
e 3 6
e 3 7
e 3 8
e 3 9
e 3 10
e 3 11
e 3 12
e 3 13
e 3 15
e 3 16
e 3 18
e 4 5
e 4 9
e 4 10
e 4 11
e 4 12
e 4 13
e 4 15
e 4 18
e 5 9
e 5 10
e 5 11
e 5 12
e 5 15
e 5 17
e 5 18
e 5 20
e 6 9
e 6 10
e 6 11
e 6 12
e 6 15
e 6 16
e 6 18
e 6 19
e 7 8
e 7 10
e 7 13
e 7 14
e 8 9
e 8 10
e 8 11
e 8 12
e 8 13
e 8 16
e 8 20
e 9 10
e 9 11
e 9 13
e 9 14
e 9 16
e 9 17
e 9 18
e 9 19
e 10 12
e 10 14
e 10 15
e 10 16
e 10 17
e 10 19
e 10 20
e 11 12
e 11 13
e 11 14
e 12 13
e 12 16
e 12 17
e 12 18
e 12 20
e 13 14
e 13 16
e 13 18
e 14 15
e 14 18
e 15 18
e 15 19
e 16 19
e 17 18
e 17 20
e 18 19
e 19 20
